c DCNF-Autarky [version 0.0.1]. 
c Copyright (c) 2018-2019 Swansea University. 
c 
c Input QBF/DQBF path: Castellini18//toilet_c_10_01.9.qdimacs
c Output SAT Translation Path: /tmp/toilet_c_10_01.9.qdimacs-dcnfAutarky.dimacs
c Input Clause Count (tautology free): 1368
c
c Performing E1-Autarky iteration.
c Remaining clauses count after E-Reduction: 1313
c
c Performing A1-Autarky iteration.
c Running Lingeling ... 
c
c Remaining clauses count after A-Reduction: 1313
c
c Input Parameter (command line, file): 
c input filename   Castellini18//toilet_c_10_01.9.qdimacs
c output filename  /tmp/toilet_c_10_01.9.qdimacs-dcnfAutarky.dimacs
c autarky level    1
c conformity level 0
c encoding type    2
c no.of var        292
c no.of clauses    1368
c no.of taut cls   0
c 
c Output Parameters: 
c remaining no.of clauses  1313
c
c filename pn pc autarky ntaut rpa rpe rpcdiff result
c "Castellini18//toilet_c_10_01.9.qdimacs" 292 1368 "E1+A1" 0 4 277 55 "RED" 
p cnf 292 1313
e 159 160 161 162 163 164 165 166 167 168 169 170 171 172 173 174 175 176 177 178 179 180 181 182 183 184 185 186 187 188 189 190 191 192 193 194 195 196 197 198 199 200 201 202 203 204 205 206 207 208 209 210 211 212 213 214 215 216 217 218 219 220 221 222 223 224 225 226 227 228 229 230 231 232 233 234 235 236 237 238 239 240 241 242 243 244 245 246 247 248 249 250 251 252 253 254 255 256 257 0
a 270 269 268 271 0
e 1 2 3 4 5 6 7 8 9 10 11 12 13 14 15 16 17 18 19 20 21 22 23 24 25 26 27 28 29 30 31 32 33 34 35 36 37 38 39 40 41 42 43 44 45 46 47 48 49 50 51 52 53 54 55 56 57 58 59 60 61 62 63 64 65 66 67 68 69 70 71 72 73 74 75 76 77 78 79 80 81 82 83 84 85 86 87 88 89 90 91 92 93 94 95 96 97 98 99 100 101 102 103 104 105 106 107 108 109 110 111 112 113 114 115 116 117 118 119 120 121 122 123 124 125 126 127 128 129 130 131 132 133 134 135 136 137 138 139 140 141 142 143 144 145 146 147 148 149 150 151 152 153 154 155 156 157 158 258 259 260 261 262 263 264 265 266 267 272 273 274 275 276 277 278 279 280 281 282 283 284 285 286 287 288 289 290 291 292 0
-270 -272 268 269 271 0
-270 -273 268 269 271 0
-270 -274 268 269 271 0
-270 -275 268 269 271 0
-270 -276 268 269 271 0
-270 -277 268 269 271 0
-270 -278 268 269 271 0
-270 268 269 271 279 0
-270 -280 268 269 271 0
-270 -281 268 269 271 0
-268 -269 -271 -272 270 0
-268 -269 -271 -273 270 0
-268 -269 -271 -274 270 0
-268 -269 -271 -275 270 0
-268 -269 -271 -276 270 0
-268 -269 -271 -277 270 0
-268 -269 -271 270 278 0
-268 -269 -271 -279 270 0
-268 -269 -271 -280 270 0
-268 -269 -271 -281 270 0
-268 -269 -272 270 271 0
-268 -269 -273 270 271 0
-268 -269 -274 270 271 0
-268 -269 -275 270 271 0
-268 -269 -276 270 271 0
-268 -269 270 271 277 0
-268 -269 -278 270 271 0
-268 -269 -279 270 271 0
-268 -269 -280 270 271 0
-268 -269 -281 270 271 0
-269 -271 -272 268 270 0
-269 -271 -273 268 270 0
-269 -271 -274 268 270 0
-269 -271 -275 268 270 0
-269 -271 268 270 276 0
-269 -271 -277 268 270 0
-269 -271 -278 268 270 0
-269 -271 -279 268 270 0
-269 -271 -280 268 270 0
-269 -271 -281 268 270 0
-269 -272 268 270 271 0
-269 -273 268 270 271 0
-269 -274 268 270 271 0
-269 268 270 271 275 0
-269 -276 268 270 271 0
-269 -277 268 270 271 0
-269 -278 268 270 271 0
-269 -279 268 270 271 0
-269 -280 268 270 271 0
-269 -281 268 270 271 0
-268 -271 -272 269 270 0
-268 -271 -273 269 270 0
-268 -271 269 270 274 0
-268 -271 -275 269 270 0
-268 -271 -276 269 270 0
-268 -271 -277 269 270 0
-268 -271 -278 269 270 0
-268 -271 -279 269 270 0
-268 -271 -280 269 270 0
-268 -271 -281 269 270 0
-268 -272 269 270 271 0
-268 269 270 271 273 0
-268 -274 269 270 271 0
-268 -275 269 270 271 0
-268 -276 269 270 271 0
-268 -277 269 270 271 0
-268 -278 269 270 271 0
-268 -279 269 270 271 0
-268 -280 269 270 271 0
-268 -281 269 270 271 0
-271 268 269 270 272 0
-271 -273 268 269 270 0
-271 -274 268 269 270 0
-271 -275 268 269 270 0
-271 -276 268 269 270 0
-271 -277 268 269 270 0
-271 -278 268 269 270 0
-271 -279 268 269 270 0
-271 -280 268 269 270 0
-271 -281 268 269 270 0
-272 268 269 270 271 0
-273 268 269 270 271 0
-274 268 269 270 271 0
-275 268 269 270 271 0
-276 268 269 270 271 0
-277 268 269 270 271 0
-278 268 269 270 271 0
-279 268 269 270 271 0
-280 268 269 270 271 0
268 269 270 271 281 0
-270 -271 -272 268 269 0
-270 -271 -273 268 269 0
-270 -271 -274 268 269 0
-270 -271 -275 268 269 0
-270 -271 -276 268 269 0
-270 -271 -277 268 269 0
-270 -271 -278 268 269 0
-270 -271 -279 268 269 0
-270 -271 268 269 280 0
-270 -271 -281 268 269 0
-282 0
-283 0
-284 0
-285 0
-286 0
-287 0
-288 0
-289 0
-290 0
-291 0
-292 0
-159 -292 0
-159 -282 0
-9 -160 0
-1 -160 0
-10 -161 0
-2 -161 0
-11 -162 0
-3 -162 0
-12 -163 0
-4 -163 0
-13 -164 0
-5 -164 0
-14 -165 0
-6 -165 0
-15 -166 0
-7 -166 0
-168 -283 0
-168 -292 0
-24 -169 0
-9 -169 0
-25 -170 0
-10 -170 0
-26 -171 0
-11 -171 0
-27 -172 0
-12 -172 0
-28 -173 0
-13 -173 0
-29 -174 0
-14 -174 0
-30 -175 0
-15 -175 0
-177 -284 0
-177 -292 0
-39 -178 0
-9 -178 0
-40 -179 0
-10 -179 0
-41 -180 0
-11 -180 0
-42 -181 0
-12 -181 0
-43 -182 0
-13 -182 0
-44 -183 0
-14 -183 0
-45 -184 0
-15 -184 0
-186 -285 0
-186 -292 0
-54 -187 0
-9 -187 0
-55 -188 0
-10 -188 0
-56 -189 0
-11 -189 0
-57 -190 0
-12 -190 0
-58 -191 0
-13 -191 0
-59 -192 0
-14 -192 0
-60 -193 0
-15 -193 0
-195 -286 0
-195 -292 0
-69 -196 0
-9 -196 0
-70 -197 0
-10 -197 0
-71 -198 0
-11 -198 0
-72 -199 0
-12 -199 0
-73 -200 0
-13 -200 0
-74 -201 0
-14 -201 0
-75 -202 0
-15 -202 0
-204 -287 0
-204 -292 0
-84 -205 0
-9 -205 0
-85 -206 0
-10 -206 0
-86 -207 0
-11 -207 0
-87 -208 0
-12 -208 0
-88 -209 0
-13 -209 0
-89 -210 0
-14 -210 0
-90 -211 0
-15 -211 0
-213 -288 0
-213 -292 0
-99 -214 0
-9 -214 0
-100 -215 0
-10 -215 0
-101 -216 0
-11 -216 0
-102 -217 0
-12 -217 0
-103 -218 0
-13 -218 0
-104 -219 0
-14 -219 0
-105 -220 0
-15 -220 0
-222 -289 0
-222 -292 0
-114 -223 0
-9 -223 0
-115 -224 0
-10 -224 0
-116 -225 0
-11 -225 0
-117 -226 0
-12 -226 0
-118 -227 0
-13 -227 0
-119 -228 0
-14 -228 0
-120 -229 0
-15 -229 0
-231 -290 0
-231 -292 0
-129 -232 0
-9 -232 0
-130 -233 0
-10 -233 0
-131 -234 0
-11 -234 0
-132 -235 0
-12 -235 0
-133 -236 0
-13 -236 0
-134 -237 0
-14 -237 0
-135 -238 0
-15 -238 0
-240 -291 0
-240 -292 0
-144 -242 0
-9 -242 0
-145 -244 0
-10 -244 0
-146 -246 0
-11 -246 0
-147 -248 0
-12 -248 0
-148 -250 0
-13 -250 0
-149 -252 0
-14 -252 0
-150 -254 0
-15 -254 0
-241 292 0
-243 9 0
-245 10 0
-247 11 0
-249 12 0
-251 13 0
-253 14 0
-255 15 0
-159 9 0
-17 -159 0
-159 1 0
-160 10 0
-18 -160 0
-160 2 0
-161 11 0
-19 -161 0
-161 3 0
-162 12 0
-20 -162 0
-162 4 0
-163 13 0
-21 -163 0
-163 5 0
-164 14 0
-22 -164 0
-164 6 0
-165 15 0
-23 -165 0
-165 7 0
-166 16 0
-166 -258 0
-166 8 0
-168 24 0
-32 -168 0
-168 9 0
-169 25 0
-33 -169 0
-169 10 0
-170 26 0
-34 -170 0
-170 11 0
-171 27 0
-35 -171 0
-171 12 0
-172 28 0
-36 -172 0
-172 13 0
-173 29 0
-37 -173 0
-173 14 0
-174 30 0
-38 -174 0
-174 15 0
-175 31 0
-175 -259 0
-175 16 0
-177 39 0
-47 -177 0
-177 9 0
-178 40 0
-48 -178 0
-178 10 0
-179 41 0
-49 -179 0
-179 11 0
-180 42 0
-50 -180 0
-180 12 0
-181 43 0
-51 -181 0
-181 13 0
-182 44 0
-52 -182 0
-182 14 0
-183 45 0
-53 -183 0
-183 15 0
-184 46 0
-184 -260 0
-184 16 0
-186 54 0
-62 -186 0
-186 9 0
-187 55 0
-63 -187 0
-187 10 0
-188 56 0
-64 -188 0
-188 11 0
-189 57 0
-65 -189 0
-189 12 0
-190 58 0
-66 -190 0
-190 13 0
-191 59 0
-67 -191 0
-191 14 0
-192 60 0
-68 -192 0
-192 15 0
-193 61 0
-193 -261 0
-193 16 0
-195 69 0
-77 -195 0
-195 9 0
-196 70 0
-78 -196 0
-196 10 0
-197 71 0
-79 -197 0
-197 11 0
-198 72 0
-80 -198 0
-198 12 0
-199 73 0
-81 -199 0
-199 13 0
-200 74 0
-82 -200 0
-200 14 0
-201 75 0
-83 -201 0
-201 15 0
-202 76 0
-202 -262 0
-202 16 0
-204 84 0
-92 -204 0
-204 9 0
-205 85 0
-93 -205 0
-205 10 0
-206 86 0
-94 -206 0
-206 11 0
-207 87 0
-95 -207 0
-207 12 0
-208 88 0
-96 -208 0
-208 13 0
-209 89 0
-97 -209 0
-209 14 0
-210 90 0
-98 -210 0
-210 15 0
-211 91 0
-211 -263 0
-211 16 0
-213 99 0
-107 -213 0
-213 9 0
-214 100 0
-108 -214 0
-214 10 0
-215 101 0
-109 -215 0
-215 11 0
-216 102 0
-110 -216 0
-216 12 0
-217 103 0
-111 -217 0
-217 13 0
-218 104 0
-112 -218 0
-218 14 0
-219 105 0
-113 -219 0
-219 15 0
-220 106 0
-220 -264 0
-220 16 0
-222 114 0
-122 -222 0
-222 9 0
-223 115 0
-123 -223 0
-223 10 0
-224 116 0
-124 -224 0
-224 11 0
-225 117 0
-125 -225 0
-225 12 0
-226 118 0
-126 -226 0
-226 13 0
-227 119 0
-127 -227 0
-227 14 0
-228 120 0
-128 -228 0
-228 15 0
-229 121 0
-229 -265 0
-229 16 0
-231 129 0
-137 -231 0
-231 9 0
-232 130 0
-138 -232 0
-232 10 0
-233 131 0
-139 -233 0
-233 11 0
-234 132 0
-140 -234 0
-234 12 0
-235 133 0
-141 -235 0
-235 13 0
-236 134 0
-142 -236 0
-236 14 0
-237 135 0
-143 -237 0
-237 15 0
-238 136 0
-238 -266 0
-238 16 0
-240 144 0
-152 -240 0
-240 9 0
-242 145 0
-153 -242 0
-242 10 0
-244 146 0
-154 -244 0
-244 11 0
-246 147 0
-155 -246 0
-246 12 0
-248 148 0
-156 -248 0
-248 13 0
-250 149 0
-157 -250 0
-250 14 0
-252 150 0
-158 -252 0
-252 15 0
-254 151 0
-254 -267 0
-254 16 0
-9 -241 0
-10 -243 0
-11 -245 0
-12 -247 0
-13 -249 0
-14 -251 0
-15 -253 0
-16 -255 0
-1 159 282 0
-2 1 160 0
-3 2 161 0
-4 3 162 0
-5 4 163 0
-6 5 164 0
-7 6 165 0
-8 7 166 0
-282 1 0
-1 2 0
-2 3 0
-3 4 0
-4 5 0
-5 6 0
-6 7 0
-7 8 0
-9 159 168 177 186 195 204 213 222 231 240 292 0
-10 9 160 169 178 187 196 205 214 223 232 242 0
-11 10 161 170 179 188 197 206 215 224 233 244 0
-12 11 162 171 180 189 198 207 216 225 234 246 0
-13 12 163 172 181 190 199 208 217 226 235 248 0
-14 13 164 173 182 191 200 209 218 227 236 250 0
-15 14 165 174 183 192 201 210 219 228 237 252 0
-16 15 166 175 184 193 202 211 220 229 238 254 0
-292 9 241 0
-9 10 243 0
-10 11 245 0
-11 12 247 0
-12 13 249 0
-13 14 251 0
-14 15 253 0
-15 16 255 0
-17 281 0
-18 17 0
-19 18 0
-20 19 0
-21 20 0
-22 21 0
-23 22 0
-258 23 0
-281 17 159 0
-17 18 160 0
-18 19 161 0
-19 20 162 0
-20 21 163 0
-21 22 164 0
-22 23 165 0
-23 166 258 0
-24 168 283 0
-25 24 169 0
-26 25 170 0
-27 26 171 0
-28 27 172 0
-29 28 173 0
-30 29 174 0
-31 30 175 0
-283 24 0
-24 25 0
-25 26 0
-26 27 0
-27 28 0
-28 29 0
-29 30 0
-30 31 0
-32 272 0
-33 32 0
-34 33 0
-35 34 0
-36 35 0
-37 36 0
-38 37 0
-259 38 0
-272 32 168 0
-32 33 169 0
-33 34 170 0
-34 35 171 0
-35 36 172 0
-36 37 173 0
-37 38 174 0
-38 175 259 0
-39 177 284 0
-40 39 178 0
-41 40 179 0
-42 41 180 0
-43 42 181 0
-44 43 182 0
-45 44 183 0
-46 45 184 0
-284 39 0
-39 40 0
-40 41 0
-41 42 0
-42 43 0
-43 44 0
-44 45 0
-45 46 0
-47 273 0
-48 47 0
-49 48 0
-50 49 0
-51 50 0
-52 51 0
-53 52 0
-260 53 0
-273 47 177 0
-47 48 178 0
-48 49 179 0
-49 50 180 0
-50 51 181 0
-51 52 182 0
-52 53 183 0
-53 184 260 0
-54 186 285 0
-55 54 187 0
-56 55 188 0
-57 56 189 0
-58 57 190 0
-59 58 191 0
-60 59 192 0
-61 60 193 0
-285 54 0
-54 55 0
-55 56 0
-56 57 0
-57 58 0
-58 59 0
-59 60 0
-60 61 0
-62 274 0
-63 62 0
-64 63 0
-65 64 0
-66 65 0
-67 66 0
-68 67 0
-261 68 0
-274 62 186 0
-62 63 187 0
-63 64 188 0
-64 65 189 0
-65 66 190 0
-66 67 191 0
-67 68 192 0
-68 193 261 0
-69 195 286 0
-70 69 196 0
-71 70 197 0
-72 71 198 0
-73 72 199 0
-74 73 200 0
-75 74 201 0
-76 75 202 0
-286 69 0
-69 70 0
-70 71 0
-71 72 0
-72 73 0
-73 74 0
-74 75 0
-75 76 0
-77 275 0
-78 77 0
-79 78 0
-80 79 0
-81 80 0
-82 81 0
-83 82 0
-262 83 0
-275 77 195 0
-77 78 196 0
-78 79 197 0
-79 80 198 0
-80 81 199 0
-81 82 200 0
-82 83 201 0
-83 202 262 0
-84 204 287 0
-85 84 205 0
-86 85 206 0
-87 86 207 0
-88 87 208 0
-89 88 209 0
-90 89 210 0
-91 90 211 0
-287 84 0
-84 85 0
-85 86 0
-86 87 0
-87 88 0
-88 89 0
-89 90 0
-90 91 0
-92 276 0
-93 92 0
-94 93 0
-95 94 0
-96 95 0
-97 96 0
-98 97 0
-263 98 0
-276 92 204 0
-92 93 205 0
-93 94 206 0
-94 95 207 0
-95 96 208 0
-96 97 209 0
-97 98 210 0
-98 211 263 0
-99 213 288 0
-100 99 214 0
-101 100 215 0
-102 101 216 0
-103 102 217 0
-104 103 218 0
-105 104 219 0
-106 105 220 0
-288 99 0
-99 100 0
-100 101 0
-101 102 0
-102 103 0
-103 104 0
-104 105 0
-105 106 0
-107 277 0
-108 107 0
-109 108 0
-110 109 0
-111 110 0
-112 111 0
-113 112 0
-264 113 0
-277 107 213 0
-107 108 214 0
-108 109 215 0
-109 110 216 0
-110 111 217 0
-111 112 218 0
-112 113 219 0
-113 220 264 0
-114 222 289 0
-115 114 223 0
-116 115 224 0
-117 116 225 0
-118 117 226 0
-119 118 227 0
-120 119 228 0
-121 120 229 0
-289 114 0
-114 115 0
-115 116 0
-116 117 0
-117 118 0
-118 119 0
-119 120 0
-120 121 0
-122 278 0
-123 122 0
-124 123 0
-125 124 0
-126 125 0
-127 126 0
-128 127 0
-265 128 0
-278 122 222 0
-122 123 223 0
-123 124 224 0
-124 125 225 0
-125 126 226 0
-126 127 227 0
-127 128 228 0
-128 229 265 0
-129 231 290 0
-130 129 232 0
-131 130 233 0
-132 131 234 0
-133 132 235 0
-134 133 236 0
-135 134 237 0
-136 135 238 0
-290 129 0
-129 130 0
-130 131 0
-131 132 0
-132 133 0
-133 134 0
-134 135 0
-135 136 0
-137 279 0
-138 137 0
-139 138 0
-140 139 0
-141 140 0
-142 141 0
-143 142 0
-266 143 0
-279 137 231 0
-137 138 232 0
-138 139 233 0
-139 140 234 0
-140 141 235 0
-141 142 236 0
-142 143 237 0
-143 238 266 0
-144 240 291 0
-145 144 242 0
-146 145 244 0
-147 146 246 0
-148 147 248 0
-149 148 250 0
-150 149 252 0
-151 150 254 0
-291 144 0
-144 145 0
-145 146 0
-146 147 0
-147 148 0
-148 149 0
-149 150 0
-150 151 0
-152 280 0
-153 152 0
-154 153 0
-155 154 0
-156 155 0
-157 156 0
-158 157 0
-267 158 0
-280 152 240 0
-152 153 242 0
-153 154 244 0
-154 155 246 0
-155 156 248 0
-156 157 250 0
-157 158 252 0
-158 254 267 0
-159 -168 0
-160 -169 0
-161 -170 0
-162 -171 0
-163 -172 0
-164 -173 0
-165 -174 0
-166 -175 0
-159 -177 0
-160 -178 0
-161 -179 0
-162 -180 0
-163 -181 0
-164 -182 0
-165 -183 0
-166 -184 0
-159 -186 0
-160 -187 0
-161 -188 0
-162 -189 0
-163 -190 0
-164 -191 0
-165 -192 0
-166 -193 0
-159 -195 0
-160 -196 0
-161 -197 0
-162 -198 0
-163 -199 0
-164 -200 0
-165 -201 0
-166 -202 0
-159 -204 0
-160 -205 0
-161 -206 0
-162 -207 0
-163 -208 0
-164 -209 0
-165 -210 0
-166 -211 0
-159 -213 0
-160 -214 0
-161 -215 0
-162 -216 0
-163 -217 0
-164 -218 0
-165 -219 0
-166 -220 0
-159 -222 0
-160 -223 0
-161 -224 0
-162 -225 0
-163 -226 0
-164 -227 0
-165 -228 0
-166 -229 0
-159 -231 0
-160 -232 0
-161 -233 0
-162 -234 0
-163 -235 0
-164 -236 0
-165 -237 0
-166 -238 0
-159 -240 0
-160 -242 0
-161 -244 0
-162 -246 0
-163 -248 0
-164 -250 0
-165 -252 0
-166 -254 0
-159 -241 0
-160 -243 0
-161 -245 0
-162 -247 0
-163 -249 0
-164 -251 0
-165 -253 0
-166 -255 0
-168 -177 0
-169 -178 0
-170 -179 0
-171 -180 0
-172 -181 0
-173 -182 0
-174 -183 0
-175 -184 0
-168 -186 0
-169 -187 0
-170 -188 0
-171 -189 0
-172 -190 0
-173 -191 0
-174 -192 0
-175 -193 0
-168 -195 0
-169 -196 0
-170 -197 0
-171 -198 0
-172 -199 0
-173 -200 0
-174 -201 0
-175 -202 0
-168 -204 0
-169 -205 0
-170 -206 0
-171 -207 0
-172 -208 0
-173 -209 0
-174 -210 0
-175 -211 0
-168 -213 0
-169 -214 0
-170 -215 0
-171 -216 0
-172 -217 0
-173 -218 0
-174 -219 0
-175 -220 0
-168 -222 0
-169 -223 0
-170 -224 0
-171 -225 0
-172 -226 0
-173 -227 0
-174 -228 0
-175 -229 0
-168 -231 0
-169 -232 0
-170 -233 0
-171 -234 0
-172 -235 0
-173 -236 0
-174 -237 0
-175 -238 0
-168 -240 0
-169 -242 0
-170 -244 0
-171 -246 0
-172 -248 0
-173 -250 0
-174 -252 0
-175 -254 0
-168 -241 0
-169 -243 0
-170 -245 0
-171 -247 0
-172 -249 0
-173 -251 0
-174 -253 0
-175 -255 0
-177 -186 0
-178 -187 0
-179 -188 0
-180 -189 0
-181 -190 0
-182 -191 0
-183 -192 0
-184 -193 0
-177 -195 0
-178 -196 0
-179 -197 0
-180 -198 0
-181 -199 0
-182 -200 0
-183 -201 0
-184 -202 0
-177 -204 0
-178 -205 0
-179 -206 0
-180 -207 0
-181 -208 0
-182 -209 0
-183 -210 0
-184 -211 0
-177 -213 0
-178 -214 0
-179 -215 0
-180 -216 0
-181 -217 0
-182 -218 0
-183 -219 0
-184 -220 0
-177 -222 0
-178 -223 0
-179 -224 0
-180 -225 0
-181 -226 0
-182 -227 0
-183 -228 0
-184 -229 0
-177 -231 0
-178 -232 0
-179 -233 0
-180 -234 0
-181 -235 0
-182 -236 0
-183 -237 0
-184 -238 0
-177 -240 0
-178 -242 0
-179 -244 0
-180 -246 0
-181 -248 0
-182 -250 0
-183 -252 0
-184 -254 0
-177 -241 0
-178 -243 0
-179 -245 0
-180 -247 0
-181 -249 0
-182 -251 0
-183 -253 0
-184 -255 0
-186 -195 0
-187 -196 0
-188 -197 0
-189 -198 0
-190 -199 0
-191 -200 0
-192 -201 0
-193 -202 0
-186 -204 0
-187 -205 0
-188 -206 0
-189 -207 0
-190 -208 0
-191 -209 0
-192 -210 0
-193 -211 0
-186 -213 0
-187 -214 0
-188 -215 0
-189 -216 0
-190 -217 0
-191 -218 0
-192 -219 0
-193 -220 0
-186 -222 0
-187 -223 0
-188 -224 0
-189 -225 0
-190 -226 0
-191 -227 0
-192 -228 0
-193 -229 0
-186 -231 0
-187 -232 0
-188 -233 0
-189 -234 0
-190 -235 0
-191 -236 0
-192 -237 0
-193 -238 0
-186 -240 0
-187 -242 0
-188 -244 0
-189 -246 0
-190 -248 0
-191 -250 0
-192 -252 0
-193 -254 0
-186 -241 0
-187 -243 0
-188 -245 0
-189 -247 0
-190 -249 0
-191 -251 0
-192 -253 0
-193 -255 0
-195 -204 0
-196 -205 0
-197 -206 0
-198 -207 0
-199 -208 0
-200 -209 0
-201 -210 0
-202 -211 0
-195 -213 0
-196 -214 0
-197 -215 0
-198 -216 0
-199 -217 0
-200 -218 0
-201 -219 0
-202 -220 0
-195 -222 0
-196 -223 0
-197 -224 0
-198 -225 0
-199 -226 0
-200 -227 0
-201 -228 0
-202 -229 0
-195 -231 0
-196 -232 0
-197 -233 0
-198 -234 0
-199 -235 0
-200 -236 0
-201 -237 0
-202 -238 0
-195 -240 0
-196 -242 0
-197 -244 0
-198 -246 0
-199 -248 0
-200 -250 0
-201 -252 0
-202 -254 0
-195 -241 0
-196 -243 0
-197 -245 0
-198 -247 0
-199 -249 0
-200 -251 0
-201 -253 0
-202 -255 0
-204 -213 0
-205 -214 0
-206 -215 0
-207 -216 0
-208 -217 0
-209 -218 0
-210 -219 0
-211 -220 0
-204 -222 0
-205 -223 0
-206 -224 0
-207 -225 0
-208 -226 0
-209 -227 0
-210 -228 0
-211 -229 0
-204 -231 0
-205 -232 0
-206 -233 0
-207 -234 0
-208 -235 0
-209 -236 0
-210 -237 0
-211 -238 0
-204 -240 0
-205 -242 0
-206 -244 0
-207 -246 0
-208 -248 0
-209 -250 0
-210 -252 0
-211 -254 0
-204 -241 0
-205 -243 0
-206 -245 0
-207 -247 0
-208 -249 0
-209 -251 0
-210 -253 0
-211 -255 0
-213 -222 0
-214 -223 0
-215 -224 0
-216 -225 0
-217 -226 0
-218 -227 0
-219 -228 0
-220 -229 0
-213 -231 0
-214 -232 0
-215 -233 0
-216 -234 0
-217 -235 0
-218 -236 0
-219 -237 0
-220 -238 0
-213 -240 0
-214 -242 0
-215 -244 0
-216 -246 0
-217 -248 0
-218 -250 0
-219 -252 0
-220 -254 0
-213 -241 0
-214 -243 0
-215 -245 0
-216 -247 0
-217 -249 0
-218 -251 0
-219 -253 0
-220 -255 0
-222 -231 0
-223 -232 0
-224 -233 0
-225 -234 0
-226 -235 0
-227 -236 0
-228 -237 0
-229 -238 0
-222 -240 0
-223 -242 0
-224 -244 0
-225 -246 0
-226 -248 0
-227 -250 0
-228 -252 0
-229 -254 0
-222 -241 0
-223 -243 0
-224 -245 0
-225 -247 0
-226 -249 0
-227 -251 0
-228 -253 0
-229 -255 0
-231 -240 0
-232 -242 0
-233 -244 0
-234 -246 0
-235 -248 0
-236 -250 0
-237 -252 0
-238 -254 0
-231 -241 0
-232 -243 0
-233 -245 0
-234 -247 0
-235 -249 0
-236 -251 0
-237 -253 0
-238 -255 0
-240 -241 0
-242 -243 0
-244 -245 0
-246 -247 0
-248 -249 0
-250 -251 0
-252 -253 0
-254 -255 0
-258 0
-259 0
-260 0
-261 0
-262 0
-263 0
-264 0
-265 0
-266 0
-267 0
